min: c;

c = 3.7119501205291 * u5_t4_h2 + 3.7119501205291 * u5_t7_h2 + 3.43420439593478 * u5_t4_h3 + 3.43420439593478 * u5_t7_h3 + 3.33559492678571 * u5_t1_h4 + 3.33559492678571 * u5_t3_h4 + 3.33559492678571 * u5_t4_h4 + 3.33559492678571 * u5_t7_h4 + 3.18304158625902 * u5_t1_h5 + 3.18304158625902 * u5_t3_h5 + 3.18304158625902 * u5_t4_h5 + 3.18304158625902 * u5_t7_h5 + 3.90684082930606 * u5_t1_h6 + 3.90684082930606 * u5_t3_h6 + 3.90684082930606 * u5_t4_h6 + 3.90684082930606 * u5_t6_h6 + 3.90684082930606 * u5_t7_h6 + 4.29202553596209 * u5_t1_h7 + 4.29202553596209 * u5_t3_h7 + 4.29202553596209 * u5_t4_h7 + 4.29202553596209 * u5_t6_h7 + 5.34411616206675 * u5_t1_h8 + 5.34411616206675 * u5_t3_h8 + 5.34411616206675 * u5_t4_h8 + 5.34411616206675 * u5_t6_h8 + 4.52219721130611 * u5_t1_h9 + 4.52219721130611 * u5_t3_h9 + 4.52219721130611 * u5_t4_h9 + 4.52219721130611 * u5_t6_h9 + 5.54366661695272 * u5_t1_h10 + 5.54366661695272 * u5_t3_h10 + 5.54366661695272 * u5_t4_h10 + 5.54366661695272 * u5_t6_h10 + 3.42393966068999 * u5_t1_h11 + 3.42393966068999 * u5_t3_h11 + 3.42393966068999 * u5_t4_h11 + 3.42393966068999 * u5_t6_h11 + 6.41110931784788 * u5_t1_h12 + 6.41110931784788 * u5_t3_h12 + 6.41110931784788 * u5_t4_h12 + 6.41110931784788 * u5_t6_h12 + 4.0997153819109 * u5_t1_h13 + 4.0997153819109 * u5_t3_h13 + 4.0997153819109 * u5_t4_h13 + 4.0997153819109 * u5_t6_h13 + 4.0997153819109 * u5_t8_h13 + 5.47269556859578 * u5_t1_h14 + 5.47269556859578 * u5_t3_h14 + 5.47269556859578 * u5_t4_h14 + 5.47269556859578 * u5_t6_h14 + 5.47269556859578 * u5_t8_h14 + 5.84215413820695 * u5_t1_h15 + 5.84215413820695 * u5_t3_h15 + 5.84215413820695 * u5_t4_h15 + 5.84215413820695 * u5_t6_h15 + 5.84215413820695 * u5_t8_h15 + 5.84215413820695 * u5_t9_h15 + 6.27836394929794 * u5_t1_h16 + 6.27836394929794 * u5_t3_h16 + 6.27836394929794 * u5_t4_h16 + 6.27836394929794 * u5_t5_h16 + 6.27836394929794 * u5_t6_h16 + 6.27836394929794 * u5_t8_h16 + 6.27836394929794 * u5_t9_h16 + 6.45287817362296 * u5_t1_h17 + 6.45287817362296 * u5_t5_h17 + 6.45287817362296 * u5_t6_h17 + 6.45287817362296 * u5_t8_h17 + 6.45287817362296 * u5_t9_h17 + 6.45287817362296 * u5_t10_h17 + 6.70777660899307 * u5_t1_h18 + 6.70777660899307 * u5_t2_h18 + 6.70777660899307 * u5_t5_h18 + 6.70777660899307 * u5_t6_h18 + 6.70777660899307 * u5_t9_h18 + 6.70777660899307 * u5_t10_h18 + 5.90263285089527 * u5_t1_h19 + 5.90263285089527 * u5_t2_h19 + 5.90263285089527 * u5_t5_h19 + 5.90263285089527 * u5_t9_h19 + 5.90263285089527 * u5_t10_h19 + 5.98855589162359 * u5_t1_h20 + 5.98855589162359 * u5_t2_h20 + 5.98855589162359 * u5_t5_h20 + 5.98855589162359 * u5_t9_h20 + 5.98855589162359 * u5_t10_h20 + 5.75452347084445 * u5_t2_h21 + 5.75452347084445 * u5_t5_h21 + 5.75452347084445 * u5_t9_h21 + 5.75452347084445 * u5_t10_h21 + 5.89286777227716 * u5_t2_h22 + 5.89286777227716 * u5_t5_h22 + 5.89286777227716 * u5_t9_h22 + 5.89286777227716 * u5_t10_h22 + 5.26320570663901 * u5_t5_h23 + 5.26320570663901 * u5_t9_h23 + 5.26320570663901 * u5_t10_h23;
0 <= u5_t1_h4 <= 1;
0 <= u5_t1_h5 <= 1;
0 <= u5_t1_h6 <= 1;
0 <= u5_t1_h7 <= 1;
0 <= u5_t1_h8 <= 1;
0 <= u5_t1_h9 <= 1;
0 <= u5_t1_h10 <= 1;
0 <= u5_t1_h11 <= 1;
0 <= u5_t1_h12 <= 1;
0 <= u5_t1_h13 <= 1;
0 <= u5_t1_h14 <= 1;
0 <= u5_t1_h15 <= 1;
0 <= u5_t1_h16 <= 1;
0 <= u5_t1_h17 <= 1;
0 <= u5_t1_h18 <= 1;
0 <= u5_t1_h19 <= 1;
0 <= u5_t1_h20 <= 1;
u5_t1_h4 + u5_t1_h5 + u5_t1_h6 + u5_t1_h7 + u5_t1_h8 + u5_t1_h9 + u5_t1_h10 + u5_t1_h11 + u5_t1_h12 + u5_t1_h13 + u5_t1_h14 + u5_t1_h15 + u5_t1_h16 + u5_t1_h17 + u5_t1_h18 + u5_t1_h19 + u5_t1_h20 = 1;
0 <= u5_t2_h18 <= 1;
0 <= u5_t2_h19 <= 1;
0 <= u5_t2_h20 <= 1;
0 <= u5_t2_h21 <= 1;
0 <= u5_t2_h22 <= 1;
u5_t2_h18 + u5_t2_h19 + u5_t2_h20 + u5_t2_h21 + u5_t2_h22 = 3;
0 <= u5_t3_h4 <= 1;
0 <= u5_t3_h5 <= 1;
0 <= u5_t3_h6 <= 1;
0 <= u5_t3_h7 <= 1;
0 <= u5_t3_h8 <= 1;
0 <= u5_t3_h9 <= 1;
0 <= u5_t3_h10 <= 1;
0 <= u5_t3_h11 <= 1;
0 <= u5_t3_h12 <= 1;
0 <= u5_t3_h13 <= 1;
0 <= u5_t3_h14 <= 1;
0 <= u5_t3_h15 <= 1;
0 <= u5_t3_h16 <= 1;
u5_t3_h4 + u5_t3_h5 + u5_t3_h6 + u5_t3_h7 + u5_t3_h8 + u5_t3_h9 + u5_t3_h10 + u5_t3_h11 + u5_t3_h12 + u5_t3_h13 + u5_t3_h14 + u5_t3_h15 + u5_t3_h16 = 1;
0 <= u5_t4_h2 <= 1;
0 <= u5_t4_h3 <= 1;
0 <= u5_t4_h4 <= 1;
0 <= u5_t4_h5 <= 1;
0 <= u5_t4_h6 <= 1;
0 <= u5_t4_h7 <= 1;
0 <= u5_t4_h8 <= 1;
0 <= u5_t4_h9 <= 1;
0 <= u5_t4_h10 <= 1;
0 <= u5_t4_h11 <= 1;
0 <= u5_t4_h12 <= 1;
0 <= u5_t4_h13 <= 1;
0 <= u5_t4_h14 <= 1;
0 <= u5_t4_h15 <= 1;
0 <= u5_t4_h16 <= 1;
u5_t4_h2 + u5_t4_h3 + u5_t4_h4 + u5_t4_h5 + u5_t4_h6 + u5_t4_h7 + u5_t4_h8 + u5_t4_h9 + u5_t4_h10 + u5_t4_h11 + u5_t4_h12 + u5_t4_h13 + u5_t4_h14 + u5_t4_h15 + u5_t4_h16 = 3;
0 <= u5_t5_h16 <= 1;
0 <= u5_t5_h17 <= 1;
0 <= u5_t5_h18 <= 1;
0 <= u5_t5_h19 <= 1;
0 <= u5_t5_h20 <= 1;
0 <= u5_t5_h21 <= 1;
0 <= u5_t5_h22 <= 1;
0 <= u5_t5_h23 <= 1;
u5_t5_h16 + u5_t5_h17 + u5_t5_h18 + u5_t5_h19 + u5_t5_h20 + u5_t5_h21 + u5_t5_h22 + u5_t5_h23 = 2;
0 <= u5_t6_h6 <= 1;
0 <= u5_t6_h7 <= 1;
0 <= u5_t6_h8 <= 1;
0 <= u5_t6_h9 <= 1;
0 <= u5_t6_h10 <= 1;
0 <= u5_t6_h11 <= 1;
0 <= u5_t6_h12 <= 1;
0 <= u5_t6_h13 <= 1;
0 <= u5_t6_h14 <= 1;
0 <= u5_t6_h15 <= 1;
0 <= u5_t6_h16 <= 1;
0 <= u5_t6_h17 <= 1;
0 <= u5_t6_h18 <= 1;
u5_t6_h6 + u5_t6_h7 + u5_t6_h8 + u5_t6_h9 + u5_t6_h10 + u5_t6_h11 + u5_t6_h12 + u5_t6_h13 + u5_t6_h14 + u5_t6_h15 + u5_t6_h16 + u5_t6_h17 + u5_t6_h18 = 2;
0 <= u5_t7_h2 <= 1;
0 <= u5_t7_h3 <= 1;
0 <= u5_t7_h4 <= 1;
0 <= u5_t7_h5 <= 1;
0 <= u5_t7_h6 <= 1;
u5_t7_h2 + u5_t7_h3 + u5_t7_h4 + u5_t7_h5 + u5_t7_h6 = 1;
0 <= u5_t8_h13 <= 1;
0 <= u5_t8_h14 <= 1;
0 <= u5_t8_h15 <= 1;
0 <= u5_t8_h16 <= 1;
0 <= u5_t8_h17 <= 1;
u5_t8_h13 + u5_t8_h14 + u5_t8_h15 + u5_t8_h16 + u5_t8_h17 = 3;
0 <= u5_t9_h15 <= 1;
0 <= u5_t9_h16 <= 1;
0 <= u5_t9_h17 <= 1;
0 <= u5_t9_h18 <= 1;
0 <= u5_t9_h19 <= 1;
0 <= u5_t9_h20 <= 1;
0 <= u5_t9_h21 <= 1;
0 <= u5_t9_h22 <= 1;
0 <= u5_t9_h23 <= 1;
u5_t9_h15 + u5_t9_h16 + u5_t9_h17 + u5_t9_h18 + u5_t9_h19 + u5_t9_h20 + u5_t9_h21 + u5_t9_h22 + u5_t9_h23 = 1;
0 <= u5_t10_h17 <= 1;
0 <= u5_t10_h18 <= 1;
0 <= u5_t10_h19 <= 1;
0 <= u5_t10_h20 <= 1;
0 <= u5_t10_h21 <= 1;
0 <= u5_t10_h22 <= 1;
0 <= u5_t10_h23 <= 1;
u5_t10_h17 + u5_t10_h18 + u5_t10_h19 + u5_t10_h20 + u5_t10_h21 + u5_t10_h22 + u5_t10_h23 = 1;
